# Any line starting with the # character is a comment line
memory 250000 mb
molecule molecule{
0 3
N          0.0000000000        0.0000000000       -0.0692230310
H          0.0000000000        0.0000000000        0.9619483577
}

set {
  reference uhf
  basis aug-cc-pV(d+d)Z
  scf_type OUT_OF_CORE
  freeze_core true
}

energy('ccsd(t)')
