# Any line starting with the # character is a comment line
memory 250000 mb
molecule molecule{
1 2
N          0.0000000000        0.0000000000        0.5700849120
N          0.0000000000        0.0000000000       -0.5700849120
}

set {
  reference uhf
  basis aug-cc-pV(5+d)Z
  scf_type OUT_OF_CORE
  freeze_core true
  DOCC [     2,    0,    0,    0,    0,    2,    1,    1 ]
  SOCC [     1,    0,    0,    0,    0,    0,    0,    0 ]
}

energy('ccsd(t)')
