# Any line starting with the # character is a comment line
memory 250000 mb
molecule molecule{
-1 1
N          0.0000000000        0.0000000000        0.0812547326
H          0.0000000000        0.8002632301       -0.5645726249
H          0.0000000000       -0.8002632301       -0.5645726249
}

set {
  reference rhf
  basis aug-cc-pV(d+d)Z
  scf_type OUT_OF_CORE
  freeze_core true
}

energy('ccsd(t)')
